feasible solution found by trivial heuristic after 0.3 seconds, objective value 5.867211e+10
presolving:
(round 1, fast)       46525 del vars, 675 del conss, 0 add conss, 0 chg bounds, 0 chg sides, 0 chg coeffs, 0 upgd conss, 0 impls, 0 clqs
   (0.5s) running MILP presolver
   (0.5s) MILP presolver found nothing
(round 2, exhaustive) 46525 del vars, 675 del conss, 0 add conss, 0 chg bounds, 0 chg sides, 0 chg coeffs, 250 upgd conss, 0 impls, 0 clqs
   (0.6s) probing: 51/600 (8.5%) - 0 fixings, 0 aggregations, 0 implications, 0 bound changes
   (0.6s) probing aborted: 50/50 successive totally useless probings
   (0.6s) symmetry computation started: requiring (bin +, int -, cont +), (fixed: bin -, int +, cont -)
   (0.6s) no symmetry present
presolving (3 rounds: 3 fast, 2 medium, 2 exhaustive):
 46525 deleted vars, 675 deleted constraints, 0 added constraints, 0 tightened bounds, 0 added holes, 0 changed sides, 0 changed coefficients
 0 implications, 0 cliques
presolved problem has 600 variables (600 bin, 0 int, 0 impl, 0 cont) and 250 constraints
    250 constraints of type <logicor>
transformed objective value is always integral (scale: 1)
Presolving Time: 0.40

 time | node  | left  |LP iter|LP it/n|mem/heur|mdpt |vars |cons |rows |cuts |sepa|confs|strbr|  dualbound   | primalbound  |  gap   | compl. 
t 0.6s|     1 |     0 |     0 |     - | trivial|   0 | 600 | 250 |   0 |   0 |  0 |   0 |   0 | 0.000000e+00 | 3.332000e+03 |    Inf | unknown
p 0.6s|     1 |     0 |     0 |     - |   locks|   0 | 600 | 250 | 250 |   0 |  0 |   0 |   0 | 0.000000e+00 | 3.800000e+01 |    Inf | unknown
  0.6s|     1 |     0 |   416 |     - |   140M |   0 | 600 | 250 | 250 |   0 |  0 |   0 |   0 | 5.833083e+00 | 3.800000e+01 | 551.46%| unknown
r 0.6s|     1 |     0 |   416 |     - |rounding|   0 | 600 | 250 | 250 |   0 |  0 |   0 |   0 | 5.833083e+00 | 3.700000e+01 | 534.31%| unknown
r 0.6s|     1 |     0 |   416 |     - |shifting|   0 | 600 | 250 | 250 |   0 |  0 |   0 |   0 | 5.833083e+00 | 3.600000e+01 | 517.17%| unknown
i 0.6s|     1 |     0 |   416 |     - |  oneopt|   0 | 600 | 250 | 250 |   0 |  0 |   0 |   0 | 5.833083e+00 | 1.300000e+01 | 122.87%| unknown
  0.7s|     1 |     0 |   473 |     - |   144M |   0 | 600 | 250 | 251 |   1 |  1 |   0 |   0 | 5.873555e+00 | 1.300000e+01 | 121.33%| unknown
  0.7s|     1 |     0 |   473 |     - |   144M |   0 | 600 | 250 | 251 |   1 |  1 |   0 |   0 | 5.873555e+00 | 1.300000e+01 | 121.33%| unknown
  0.9s|     1 |     0 |   536 |     - |   147M |   0 | 600 | 250 | 252 |   2 |  2 |   0 |   0 | 5.885342e+00 | 1.300000e+01 | 120.89%| unknown
  0.9s|     1 |     0 |   536 |     - |   147M |   0 | 600 | 250 | 252 |   2 |  2 |   0 |   0 | 5.885342e+00 | 1.300000e+01 | 120.89%| unknown
  1.2s|     1 |     0 |   583 |     - |   150M |   0 | 600 | 250 | 253 |   3 |  3 |   0 |   0 | 5.900865e+00 | 1.300000e+01 | 120.31%| unknown
  1.2s|     1 |     0 |   583 |     - |   150M |   0 | 600 | 250 | 253 |   3 |  3 |   0 |   0 | 5.900865e+00 | 1.300000e+01 | 120.31%| unknown
  1.3s|     1 |     0 |   650 |     - |   152M |   0 | 600 | 250 | 254 |   4 |  4 |   0 |   0 | 5.923485e+00 | 1.300000e+01 | 119.47%| unknown
  1.5s|     1 |     0 |   687 |     - |   155M |   0 | 600 | 250 | 255 |   5 |  5 |   0 |   0 | 5.937173e+00 | 1.300000e+01 | 118.96%| unknown
  1.5s|     1 |     0 |   687 |     - |   155M |   0 | 600 | 250 | 255 |   5 |  5 |   0 |   0 | 5.937173e+00 | 1.300000e+01 | 118.96%| unknown
 time | node  | left  |LP iter|LP it/n|mem/heur|mdpt |vars |cons |rows |cuts |sepa|confs|strbr|  dualbound   | primalbound  |  gap   | compl. 
  1.6s|     1 |     0 |   705 |     - |   157M |   0 | 600 | 250 | 256 |   6 |  6 |   0 |   0 | 5.940180e+00 | 1.300000e+01 | 118.85%| unknown
  1.6s|     1 |     0 |   705 |     - |   157M |   0 | 600 | 250 | 256 |   6 |  6 |   0 |   0 | 5.940180e+00 | 1.300000e+01 | 118.85%| unknown
  1.8s|     1 |     0 |   719 |     - |   159M |   0 | 600 | 250 | 257 |   7 |  7 |   0 |   0 | 5.941994e+00 | 1.300000e+01 | 118.78%| unknown
  1.9s|     1 |     0 |   746 |     - |   162M |   0 | 600 | 250 | 258 |   8 |  8 |   0 |   0 | 5.949491e+00 | 1.300000e+01 | 118.51%| unknown
  2.0s|     1 |     0 |   762 |     - |   164M |   0 | 600 | 250 | 259 |   9 |  9 |   0 |   0 | 5.951241e+00 | 1.300000e+01 | 118.44%| unknown
  2.2s|     1 |     0 |   810 |     - |   166M |   0 | 600 | 250 | 260 |  10 | 10 |   0 |   0 | 5.956094e+00 | 1.300000e+01 | 118.26%| unknown
  2.2s|     1 |     0 |   842 |     - |   166M |   0 | 600 | 250 | 261 |  11 | 11 |   0 |   0 | 5.959975e+00 | 1.300000e+01 | 118.12%| unknown
  2.3s|     1 |     0 |   859 |     - |   166M |   0 | 600 | 250 | 262 |  12 | 12 |   0 |   0 | 5.960281e+00 | 1.300000e+01 | 118.11%| unknown
  2.3s|     1 |     0 |   877 |     - |   166M |   0 | 600 | 250 | 263 |  13 | 13 |   0 |   0 | 5.960428e+00 | 1.300000e+01 | 118.11%| unknown
  2.4s|     1 |     0 |   912 |     - |   166M |   0 | 600 | 250 | 264 |  14 | 14 |   0 |   0 | 5.961859e+00 | 1.300000e+01 | 118.05%| unknown
  2.4s|     1 |     0 |   923 |     - |   166M |   0 | 600 | 250 | 265 |  15 | 15 |   0 |   0 | 5.962155e+00 | 1.300000e+01 | 118.04%| unknown
  2.4s|     1 |     0 |   934 |     - |   166M |   0 | 600 | 250 | 266 |  16 | 16 |   0 |   0 | 5.962509e+00 | 1.300000e+01 | 118.03%| unknown
  2.5s|     1 |     0 |   947 |     - |   166M |   0 | 600 | 250 | 266 |  17 | 17 |   0 |   0 | 5.962882e+00 | 1.300000e+01 | 118.02%| unknown
  2.5s|     1 |     0 |   963 |     - |   166M |   0 | 600 | 250 | 267 |  18 | 18 |   0 |   0 | 5.963102e+00 | 1.300000e+01 | 118.01%| unknown
  2.7s|     1 |     0 |   968 |     - |   166M |   0 | 600 | 250 | 268 |  19 | 19 |   0 |   0 | 5.963225e+00 | 1.300000e+01 | 118.00%| unknown
 time | node  | left  |LP iter|LP it/n|mem/heur|mdpt |vars |cons |rows |cuts |sepa|confs|strbr|  dualbound   | primalbound  |  gap   | compl. 
  2.7s|     1 |     0 |   982 |     - |   166M |   0 | 600 | 250 | 269 |  20 | 20 |   0 |   0 | 5.963923e+00 | 1.300000e+01 | 117.98%| unknown
  2.8s|     1 |     0 |   991 |     - |   166M |   0 | 600 | 250 | 270 |  21 | 21 |   0 |   0 | 5.964060e+00 | 1.300000e+01 | 117.97%| unknown
  3.0s|     1 |     0 |   995 |     - |   166M |   0 | 600 | 250 | 271 |  22 | 22 |   0 |   0 | 5.964107e+00 | 1.300000e+01 | 117.97%| unknown
  3.0s|     1 |     0 |  1009 |     - |   166M |   0 | 600 | 250 | 271 |  23 | 23 |   0 |   0 | 5.964367e+00 | 1.300000e+01 | 117.96%| unknown
  3.1s|     1 |     0 |  1020 |     - |   166M |   0 | 600 | 250 | 272 |  24 | 24 |   0 |   0 | 5.964651e+00 | 1.300000e+01 | 117.95%| unknown
  3.1s|     1 |     0 |  1034 |     - |   166M |   0 | 600 | 250 | 273 |  25 | 25 |   0 |   0 | 5.964825e+00 | 1.300000e+01 | 117.94%| unknown
  3.3s|     1 |     0 |  1040 |     - |   166M |   0 | 600 | 250 | 274 |  26 | 26 |   0 |   0 | 5.964929e+00 | 1.300000e+01 | 117.94%| unknown
L 6.1s|     1 |     0 |  2245 |     - |    rens|   0 | 600 | 250 | 274 |  26 | 28 |   0 |   0 | 5.964929e+00 | 1.100000e+01 |  84.41%| unknown
(run 1, node 1) restarting after 177 global fixings of integer variables

(restart) converted 24 cuts from the global cut pool into linear constraints

presolving:
(round 1, fast)       177 del vars, 0 del conss, 0 add conss, 0 chg bounds, 0 chg sides, 10590 chg coeffs, 0 upgd conss, 0 impls, 0 clqs
   (8.0s) running MILP presolver
   (8.0s) MILP presolver found nothing
(round 2, exhaustive) 177 del vars, 0 del conss, 0 add conss, 0 chg bounds, 0 chg sides, 10590 chg coeffs, 3 upgd conss, 0 impls, 0 clqs
presolving (3 rounds: 3 fast, 2 medium, 2 exhaustive):
 177 deleted vars, 0 deleted constraints, 0 added constraints, 0 tightened bounds, 0 added holes, 0 changed sides, 10590 changed coefficients
 0 implications, 0 cliques
presolved problem has 423 variables (423 bin, 0 int, 0 impl, 0 cont) and 274 constraints
      3 constraints of type <knapsack>
     21 constraints of type <linear>
    250 constraints of type <logicor>
transformed objective value is always integral (scale: 1)
Presolving Time: 2.37
transformed 94/100 original solutions to the transformed problem space

 time | node  | left  |LP iter|LP it/n|mem/heur|mdpt |vars |cons |rows |cuts |sepa|confs|strbr|  dualbound   | primalbound  |  gap   | compl. 
  9.7s|     1 |     0 |  2776 |     - |   203M |   0 | 423 | 274 | 274 |   0 |  0 |   0 |   0 | 5.964929e+00 | 1.100000e+01 |  84.41%| unknown
  9.7s|     1 |     0 |  2776 |     - |   203M |   0 | 423 | 274 | 274 |   0 |  0 |   0 |   0 | 5.964929e+00 | 1.100000e+01 |  84.41%| unknown
 10.1s|     1 |     0 |  2818 |     - |   205M |   0 | 423 | 274 | 275 |   1 |  1 |   0 |   0 | 5.966765e+00 | 1.100000e+01 |  84.35%| unknown
 10.4s|     1 |     0 |  2849 |     - |   207M |   0 | 423 | 274 | 276 |   2 |  2 |   0 |   0 | 5.967843e+00 | 1.100000e+01 |  84.32%| unknown
 10.8s|     1 |     0 |  2871 |     - |   209M |   0 | 423 | 274 | 277 |   3 |  3 |   0 |   0 | 5.968343e+00 | 1.100000e+01 |  84.31%| unknown
 11.0s|     1 |     0 |  2888 |     - |   210M |   0 | 423 | 274 | 278 |   4 |  4 |   0 |   0 | 5.968759e+00 | 1.100000e+01 |  84.29%| unknown
 11.4s|     1 |     0 |  2943 |     - |   212M |   0 | 423 | 274 | 279 |   5 |  5 |   0 |   0 | 5.969679e+00 | 1.100000e+01 |  84.26%| unknown
 11.8s|     1 |     0 |  2963 |     - |   213M |   0 | 423 | 274 | 280 |   6 |  6 |   0 |   0 | 5.970111e+00 | 1.100000e+01 |  84.25%| unknown
 12.2s|     1 |     0 |  2987 |     - |   215M |   0 | 423 | 274 | 281 |   7 |  7 |   0 |   0 | 5.971078e+00 | 1.100000e+01 |  84.22%| unknown
 12.4s|     1 |     0 |  3008 |     - |   216M |   0 | 423 | 274 | 282 |   8 |  8 |   0 |   0 | 5.971846e+00 | 1.100000e+01 |  84.20%| unknown
 12.6s|     1 |     0 |  3023 |     - |   218M |   0 | 423 | 274 | 283 |   9 |  9 |   0 |   0 | 5.972169e+00 | 1.100000e+01 |  84.19%| unknown
 13.0s|     1 |     0 |  3040 |     - |   219M |   0 | 423 | 274 | 284 |  10 | 10 |   0 |   0 | 5.972553e+00 | 1.100000e+01 |  84.18%| unknown
 13.2s|     1 |     0 |  3059 |     - |   219M |   0 | 423 | 274 | 285 |  11 | 11 |   0 |   0 | 5.973128e+00 | 1.100000e+01 |  84.16%| unknown
 13.5s|     1 |     0 |  3080 |     - |   219M |   0 | 423 | 274 | 286 |  12 | 12 |   0 |   0 | 5.973546e+00 | 1.100000e+01 |  84.15%| unknown
 13.7s|     1 |     0 |  3096 |     - |   219M |   0 | 423 | 274 | 287 |  13 | 13 |   0 |   0 | 5.974023e+00 | 1.100000e+01 |  84.13%| unknown
 time | node  | left  |LP iter|LP it/n|mem/heur|mdpt |vars |cons |rows |cuts |sepa|confs|strbr|  dualbound   | primalbound  |  gap   | compl. 
 14.0s|     1 |     0 |  3114 |     - |   220M |   0 | 423 | 274 | 288 |  14 | 14 |   0 |   0 | 5.975510e+00 | 1.100000e+01 |  84.08%| unknown
 14.1s|     1 |     0 |  3142 |     - |   220M |   0 | 423 | 274 | 284 |  15 | 15 |   0 |   0 | 5.976349e+00 | 1.100000e+01 |  84.06%| unknown
 14.2s|     1 |     0 |  3162 |     - |   220M |   0 | 423 | 274 | 285 |  16 | 16 |   0 |   0 | 5.976963e+00 | 1.100000e+01 |  84.04%| unknown
 14.4s|     1 |     0 |  3178 |     - |   220M |   0 | 423 | 274 | 286 |  17 | 17 |   0 |   0 | 5.977206e+00 | 1.100000e+01 |  84.03%| unknown
 14.5s|     1 |     0 |  3193 |     - |   220M |   0 | 423 | 274 | 287 |  18 | 18 |   0 |   0 | 5.977717e+00 | 1.100000e+01 |  84.02%| unknown
 14.7s|     1 |     0 |  3231 |     - |   220M |   0 | 423 | 274 | 288 |  19 | 19 |   0 |   0 | 5.978688e+00 | 1.100000e+01 |  83.99%| unknown
 14.8s|     1 |     0 |  3261 |     - |   220M |   0 | 423 | 274 | 289 |  20 | 20 |   0 |   0 | 5.979728e+00 | 1.100000e+01 |  83.95%| unknown
 15.0s|     1 |     0 |  3282 |     - |   220M |   0 | 423 | 274 | 284 |  21 | 21 |   0 |   0 | 5.980760e+00 | 1.100000e+01 |  83.92%| unknown
 15.1s|     1 |     0 |  3294 |     - |   220M |   0 | 423 | 274 | 285 |  22 | 22 |   0 |   0 | 5.981878e+00 | 1.100000e+01 |  83.89%| unknown
L16.8s|     1 |     0 |  5911 |     - |    rens|   0 | 423 | 274 | 285 |  22 | 24 |   3 |   0 | 5.981878e+00 | 1.000000e+01 |  67.17%| unknown
(run 2, node 1) restarting after 138 global fixings of integer variables

(restart) converted 21 cuts from the global cut pool into linear constraints

presolving:
(round 1, fast)       138 del vars, 0 del conss, 0 add conss, 0 chg bounds, 0 chg sides, 8273 chg coeffs, 0 upgd conss, 0 impls, 0 clqs
   (18.6s) running MILP presolver
   (18.7s) MILP presolver found nothing
(round 2, exhaustive) 138 del vars, 0 del conss, 0 add conss, 0 chg bounds, 0 chg sides, 8273 chg coeffs, 19 upgd conss, 0 impls, 0 clqs
presolving (3 rounds: 3 fast, 2 medium, 2 exhaustive):
 138 deleted vars, 0 deleted constraints, 0 added constraints, 0 tightened bounds, 0 added holes, 0 changed sides, 8273 changed coefficients
 0 implications, 0 cliques
presolved problem has 285 variables (285 bin, 0 int, 0 impl, 0 cont) and 295 constraints
     22 constraints of type <knapsack>
     23 constraints of type <linear>
    250 constraints of type <logicor>
transformed objective value is always integral (scale: 1)
Presolving Time: 4.21
transformed 93/100 original solutions to the transformed problem space

 time | node  | left  |LP iter|LP it/n|mem/heur|mdpt |vars |cons |rows |cuts |sepa|confs|strbr|  dualbound   | primalbound  |  gap   | compl. 
 19.9s|     1 |     0 |  6424 |     - |   213M |   0 | 285 | 295 | 295 |   0 |  0 |   3 |   0 | 5.981878e+00 | 1.000000e+01 |  67.17%| unknown
 19.9s|     1 |     0 |  6424 |     - |   213M |   0 | 285 | 295 | 295 |   0 |  0 |   3 |   0 | 5.981878e+00 | 1.000000e+01 |  67.17%| unknown
 20.1s|     1 |     0 |  6443 |     - |   215M |   0 | 285 | 295 | 296 |   1 |  1 |   3 |   0 | 5.982898e+00 | 1.000000e+01 |  67.14%| unknown
 20.3s|     1 |     0 |  6462 |     - |   216M |   0 | 285 | 295 | 297 |   2 |  2 |   3 |   0 | 5.984216e+00 | 1.000000e+01 |  67.11%| unknown
 20.5s|     1 |     0 |  6487 |     - |   218M |   0 | 285 | 295 | 298 |   3 |  3 |   3 |   0 | 5.985681e+00 | 1.000000e+01 |  67.07%| unknown
 20.7s|     1 |     0 |  6505 |     - |   220M |   0 | 285 | 295 | 299 |   4 |  4 |   3 |   0 | 5.987704e+00 | 1.000000e+01 |  67.01%| unknown
 21.0s|     1 |     0 |  6529 |     - |   220M |   0 | 285 | 295 | 300 |   5 |  5 |   3 |   0 | 5.989422e+00 | 1.000000e+01 |  66.96%| unknown
 21.3s|     1 |     0 |  6548 |     - |   222M |   0 | 285 | 295 | 301 |   6 |  6 |   3 |   0 | 5.990443e+00 | 1.000000e+01 |  66.93%| unknown
 21.3s|     1 |     0 |  6548 |     - |   222M |   0 | 285 | 295 | 301 |   6 |  6 |   3 |   0 | 5.990443e+00 | 1.000000e+01 |  66.93%| unknown
 21.6s|     1 |     0 |  6566 |     - |   223M |   0 | 285 | 295 | 302 |   7 |  7 |   3 |   0 | 5.990735e+00 | 1.000000e+01 |  66.92%| unknown
 21.9s|     1 |     0 |  6579 |     - |   225M |   0 | 285 | 295 | 303 |   8 |  8 |   3 |   0 | 5.991145e+00 | 1.000000e+01 |  66.91%| unknown
 22.2s|     1 |     0 |  6601 |     - |   226M |   0 | 285 | 295 | 304 |   9 |  9 |   3 |   0 | 5.991955e+00 | 1.000000e+01 |  66.89%| unknown
 22.2s|     1 |     0 |  6601 |     - |   226M |   0 | 285 | 295 | 304 |   9 |  9 |   3 |   0 | 5.991955e+00 | 1.000000e+01 |  66.89%| unknown
 22.5s|     1 |     0 |  6624 |     - |   226M |   0 | 285 | 295 | 305 |  10 | 10 |   3 |   0 | 5.992489e+00 | 1.000000e+01 |  66.88%| unknown
 22.5s|     1 |     0 |  6624 |     - |   226M |   0 | 285 | 295 | 305 |  10 | 10 |   3 |   0 | 5.992489e+00 | 1.000000e+01 |  66.88%| unknown
 time | node  | left  |LP iter|LP it/n|mem/heur|mdpt |vars |cons |rows |cuts |sepa|confs|strbr|  dualbound   | primalbound  |  gap   | compl. 
 22.7s|     1 |     0 |  6634 |     - |   226M |   0 | 285 | 295 | 289 |  11 | 11 |   3 |   0 | 5.992780e+00 | 1.000000e+01 |  66.87%| unknown
 22.9s|     1 |     0 |  6644 |     - |   226M |   0 | 285 | 295 | 290 |  12 | 12 |   3 |   0 | 5.993010e+00 | 1.000000e+01 |  66.86%| unknown
(run 3, node 1) restarting after 54 global fixings of integer variables

(restart) converted 12 cuts from the global cut pool into linear constraints

presolving:
(round 1, fast)       54 del vars, 0 del conss, 0 add conss, 0 chg bounds, 0 chg sides, 3269 chg coeffs, 0 upgd conss, 0 impls, 0 clqs
   (25.7s) running MILP presolver
   (25.7s) MILP presolver found nothing
(round 2, exhaustive) 54 del vars, 0 del conss, 0 add conss, 0 chg bounds, 0 chg sides, 3269 chg coeffs, 12 upgd conss, 0 impls, 0 clqs
presolving (3 rounds: 3 fast, 2 medium, 2 exhaustive):
 54 deleted vars, 0 deleted constraints, 0 added constraints, 0 tightened bounds, 0 added holes, 0 changed sides, 3269 changed coefficients
 0 implications, 0 cliques
presolved problem has 231 variables (231 bin, 0 int, 0 impl, 0 cont) and 309 constraints
     34 constraints of type <knapsack>
     23 constraints of type <linear>
    252 constraints of type <logicor>
transformed objective value is always integral (scale: 1)
Presolving Time: 5.87
transformed 82/100 original solutions to the transformed problem space

 time | node  | left  |LP iter|LP it/n|mem/heur|mdpt |vars |cons |rows |cuts |sepa|confs|strbr|  dualbound   | primalbound  |  gap   | compl. 
 26.9s|     1 |     0 |  9526 |     - |   219M |   0 | 231 | 309 | 307 |   0 |  0 |   6 |   0 | 5.993010e+00 | 1.000000e+01 |  66.86%| unknown
 27.1s|     1 |     0 |  9598 |     - |   219M |   0 | 231 | 309 | 308 |   1 |  1 |   6 |   0 | 5.996290e+00 | 1.000000e+01 |  66.77%| unknown
 27.2s|     1 |     0 |  9631 |     - |   219M |   0 | 231 | 309 | 309 |   2 |  2 |   6 |   0 | 5.998862e+00 | 1.000000e+01 |  66.70%| unknown
 27.4s|     1 |     0 |  9655 |     - |   220M |   0 | 231 | 309 | 310 |   3 |  3 |   6 |   0 | 5.999197e+00 | 1.000000e+01 |  66.69%| unknown
 27.4s|     1 |     0 |  9655 |     - |   220M |   0 | 231 | 309 | 310 |   3 |  3 |   6 |   0 | 5.999197e+00 | 1.000000e+01 |  66.69%| unknown
 27.5s|     1 |     0 |  9732 |     - |   220M |   0 | 231 | 309 | 311 |   4 |  4 |   6 |   0 | 6.002239e+00 | 1.000000e+01 |  66.60%| unknown
 27.7s|     1 |     0 |  9775 |     - |   223M |   0 | 231 | 309 | 312 |   5 |  5 |   6 |   0 | 6.003863e+00 | 1.000000e+01 |  66.56%| unknown
 27.7s|     1 |     0 |  9775 |     - |   223M |   0 | 231 | 309 | 312 |   5 |  5 |   6 |   0 | 6.003863e+00 | 1.000000e+01 |  66.56%| unknown
 27.9s|     1 |     0 |  9806 |     - |   223M |   0 | 231 | 309 | 313 |   6 |  6 |   6 |   0 | 6.004410e+00 | 1.000000e+01 |  66.54%| unknown
 28.2s|     1 |     0 |  9834 |     - |   224M |   0 | 231 | 309 | 314 |   7 |  7 |   6 |   0 | 6.004799e+00 | 1.000000e+01 |  66.53%| unknown
 28.5s|     1 |     0 |  9856 |     - |   226M |   0 | 231 | 309 | 315 |   8 |  8 |   6 |   0 | 6.004917e+00 | 1.000000e+01 |  66.53%| unknown
 28.8s|     1 |     0 |  9910 |     - |   227M |   0 | 231 | 309 | 316 |   9 |  9 |   6 |   0 | 6.005746e+00 | 1.000000e+01 |  66.51%| unknown
 28.8s|     1 |     0 |  9910 |     - |   227M |   0 | 231 | 309 | 316 |   9 |  9 |   6 |   0 | 6.005746e+00 | 1.000000e+01 |  66.51%| unknown
 29.0s|     1 |     0 | 10000 |     - |   229M |   0 | 231 | 309 | 297 |  10 | 10 |   6 |   0 | 6.007851e+00 | 1.000000e+01 |  66.45%| unknown
 29.0s|     1 |     0 | 10019 |     - |   229M |   0 | 231 | 309 | 298 |  11 | 11 |   6 |   0 | 6.008036e+00 | 1.000000e+01 |  66.44%| unknown
 time | node  | left  |LP iter|LP it/n|mem/heur|mdpt |vars |cons |rows |cuts |sepa|confs|strbr|  dualbound   | primalbound  |  gap   | compl. 
 29.2s|     1 |     0 | 10056 |     - |   229M |   0 | 231 | 309 | 299 |  12 | 12 |   6 |   0 | 6.009342e+00 | 1.000000e+01 |  66.41%| unknown
 29.3s|     1 |     0 | 10071 |     - |   229M |   0 | 231 | 309 | 300 |  13 | 13 |   6 |   0 | 6.009761e+00 | 1.000000e+01 |  66.40%| unknown
 29.5s|     1 |     0 | 10097 |     - |   229M |   0 | 231 | 309 | 301 |  14 | 14 |   6 |   0 | 6.010181e+00 | 1.000000e+01 |  66.38%| unknown
 29.6s|     1 |     0 | 10118 |     - |   229M |   0 | 231 | 309 | 302 |  15 | 15 |   6 |   0 | 6.010352e+00 | 1.000000e+01 |  66.38%| unknown
 29.8s|     1 |     0 | 10136 |     - |   229M |   0 | 231 | 309 | 298 |  16 | 16 |   6 |   0 | 6.010491e+00 | 1.000000e+01 |  66.38%| unknown
 30.0s|     1 |     0 | 10149 |     - |   229M |   0 | 231 | 309 | 299 |  17 | 17 |   6 |   0 | 6.010633e+00 | 1.000000e+01 |  66.37%| unknown
 30.1s|     1 |     0 | 10166 |     - |   229M |   0 | 231 | 309 | 300 |  18 | 18 |   6 |   0 | 6.010714e+00 | 1.000000e+01 |  66.37%| unknown
 30.2s|     1 |     0 | 10179 |     - |   229M |   0 | 231 | 309 | 301 |  19 | 19 |   6 |   0 | 6.010752e+00 | 1.000000e+01 |  66.37%| unknown
 30.3s|     1 |     0 | 10187 |     - |   229M |   0 | 231 | 309 | 302 |  20 | 20 |   6 |   0 | 6.010778e+00 | 1.000000e+01 |  66.37%| unknown
 30.4s|     1 |     0 | 10195 |     - |   229M |   0 | 231 | 309 | 303 |  21 | 21 |   6 |   0 | 6.010805e+00 | 1.000000e+01 |  66.37%| unknown
 30.5s|     1 |     0 | 10201 |     - |   229M |   0 | 231 | 309 | 288 |  22 | 22 |   6 |   0 | 6.010813e+00 | 1.000000e+01 |  66.37%| unknown
 31.6s|     1 |     2 | 11575 |     - |   229M |   0 | 231 | 309 | 288 |  22 | 22 |   7 |  13 | 6.070545e+00 | 1.000000e+01 |  64.73%| unknown
 35.3s|   100 |    45 | 20575 | 165.3 |   242M |  17 | 231 | 417 | 283 |  66 |  1 | 116 | 292 | 6.522663e+00 | 1.000000e+01 |  53.31%|   6.97%
 37.5s|   200 |    99 | 29841 | 129.3 |   243M |  21 | 231 | 459 | 283 | 110 |  2 | 159 | 367 | 6.732062e+00 | 1.000000e+01 |  48.54%|  12.06%
 40.3s|   300 |   193 | 41055 | 123.6 |   243M |  24 | 231 | 480 | 278 | 152 |  1 | 183 | 387 | 7.074667e+00 | 1.000000e+01 |  41.35%|  17.53%
 time | node  | left  |LP iter|LP it/n|mem/heur|mdpt |vars |cons |rows |cuts |sepa|confs|strbr|  dualbound   | primalbound  |  gap   | compl. 
 43.0s|   400 |   277 | 50843 | 117.2 |   243M |  28 | 231 | 498 | 278 | 192 |  1 | 204 | 399 | 7.345577e+00 | 1.000000e+01 |  36.14%|  21.34%
 46.2s|   500 |   357 | 61205 | 114.5 |   245M |  28 | 231 | 522 | 283 | 272 |  0 | 230 | 408 | 7.372723e+00 | 1.000000e+01 |  35.64%|  21.72%
 47.9s|   600 |   403 | 68961 | 108.4 |   245M |  30 | 231 | 539 | 285 | 290 |  1 | 249 | 431 | 7.392146e+00 | 1.000000e+01 |  35.28%|  22.83%
 49.8s|   700 |   439 | 75154 | 101.8 |   246M |  30 | 231 | 549 | 283 | 332 |  0 | 259 | 440 | 7.446497e+00 | 1.000000e+01 |  34.29%|  24.00%
 51.3s|   800 |   469 | 80600 |  95.9 |   246M |  30 | 231 | 553 | 288 | 361 |  1 | 265 | 444 | 7.553826e+00 | 1.000000e+01 |  32.38%|  27.04%
 52.3s|   900 |   497 | 85768 |  91.0 |   246M |  30 | 231 | 558 | 279 | 385 |  0 | 270 | 448 | 7.572402e+00 | 1.000000e+01 |  32.06%|  27.77%
 53.3s|  1000 |   525 | 91322 |  87.4 |   247M |  30 | 231 | 561 | 287 | 417 |  1 | 273 | 451 | 7.596445e+00 | 1.000000e+01 |  31.64%|  29.64%
 55.7s|  1100 |   553 | 96778 |  84.4 |   249M |  30 | 231 | 562 | 283 | 466 |  1 | 274 | 453 | 7.596445e+00 | 1.000000e+01 |  31.64%|  30.02%
 57.3s|  1200 |   587 |102338 |  82.0 |   249M |  30 | 231 | 566 | 283 | 503 |  1 | 279 | 456 | 7.648929e+00 | 1.000000e+01 |  30.74%|  31.12%
 59.8s|  1300 |   623 |108894 |  80.8 |   249M |  30 | 231 | 571 | 283 | 566 |  6 | 284 | 460 | 7.661805e+00 | 1.000000e+01 |  30.52%|  31.85%
 61.6s|  1400 |   651 |113978 |  78.6 |   249M |  30 | 231 | 579 | 278 | 597 |  1 | 292 | 467 | 7.760051e+00 | 1.000000e+01 |  28.87%|  33.13%
 62.9s|  1500 |   673 |118854 |  76.7 |   249M |  30 | 231 | 584 | 283 | 644 |  0 | 297 | 471 | 7.818056e+00 | 1.000000e+01 |  27.91%|  34.93%
 64.6s|  1600 |   707 |124470 |  75.4 |   251M |  30 | 231 | 590 | 283 | 685 |  1 | 305 | 476 | 7.873525e+00 | 1.000000e+01 |  27.01%|  36.30%
 65.7s|  1700 |   727 |129098 |  73.7 |   251M |  30 | 231 | 603 | 283 | 696 |  0 | 318 | 487 | 7.882441e+00 | 1.000000e+01 |  26.86%|  36.66%
 66.4s|  1800 |   753 |133387 |  72.0 |   251M |  30 | 231 | 605 | 283 | 710 |  1 | 320 | 489 | 7.904129e+00 | 1.000000e+01 |  26.52%|  37.24%
 time | node  | left  |LP iter|LP it/n|mem/heur|mdpt |vars |cons |rows |cuts |sepa|confs|strbr|  dualbound   | primalbound  |  gap   | compl. 
 67.5s|  1900 |   777 |138028 |  70.6 |   252M |  30 | 231 | 605 | 281 | 741 |  1 | 320 | 490 | 7.913319e+00 | 1.000000e+01 |  26.37%|  37.81%
 68.4s|  2000 |   799 |142387 |  69.3 |   253M |  30 | 231 | 610 | 283 | 746 |  0 | 325 | 496 | 7.929880e+00 | 1.000000e+01 |  26.11%|  38.40%
 69.8s|  2100 |   809 |147212 |  68.3 |   253M |  30 | 231 | 610 | 283 | 775 |  0 | 326 | 498 | 7.945618e+00 | 1.000000e+01 |  25.86%|  39.22%
 71.1s|  2200 |   821 |152141 |  67.4 |   254M |  30 | 231 | 610 | 278 | 813 |  0 | 326 | 498 | 7.953338e+00 | 1.000000e+01 |  25.73%|  40.22%
 72.3s|  2300 |   835 |156777 |  66.5 |   255M |  30 | 231 | 612 | 282 | 847 |  0 | 330 | 502 | 7.997500e+00 | 1.000000e+01 |  25.04%|  42.10%
 73.5s|  2400 |   843 |160796 |  65.4 |   257M |  30 | 231 | 614 | 283 | 871 |  1 | 334 | 506 | 8.035046e+00 | 1.000000e+01 |  24.45%|  43.04%
 74.6s|  2500 |   859 |164710 |  64.3 |   257M |  30 | 231 | 612 | 283 | 883 |  0 | 334 | 506 | 8.037746e+00 | 1.000000e+01 |  24.41%|  43.40%
 75.6s|  2600 |   877 |168883 |  63.5 |   257M |  30 | 231 | 611 | 283 | 905 |  0 | 337 | 509 | 8.066732e+00 | 1.000000e+01 |  23.97%|  44.81%
 77.0s|  2700 |   889 |173400 |  62.8 |   258M |  30 | 231 | 611 | 283 | 947 |  6 | 340 | 510 | 8.068275e+00 | 1.000000e+01 |  23.94%|  45.39%
 77.8s|  2800 |   897 |177345 |  62.0 |   259M |  30 | 231 | 612 | 283 | 969 |  1 | 343 | 513 | 8.070806e+00 | 1.000000e+01 |  23.90%|  45.86%
 78.7s|  2900 |   911 |181228 |  61.2 |   259M |  30 | 231 | 612 | 283 | 980 |  1 | 345 | 516 | 8.081832e+00 | 1.000000e+01 |  23.73%|  46.32%
 79.7s|  3000 |   919 |185107 |  60.4 |   259M |  30 | 231 | 611 | 283 |1002 |  0 | 345 | 516 | 8.083894e+00 | 1.000000e+01 |  23.70%|  46.57%
 80.7s|  3100 |   933 |189321 |  59.8 |   259M |  30 | 231 | 617 | 279 |1029 |  1 | 352 | 522 | 8.094351e+00 | 1.000000e+01 |  23.54%|  46.85%
 80.9s|  3200 |   941 |192635 |  59.0 |   260M |  30 | 231 | 615 | 282 |1029 |  1 | 353 | 523 | 8.094351e+00 | 1.000000e+01 |  23.54%|  47.43%
 81.4s|  3300 |   947 |196404 |  58.4 |   260M |  30 | 231 | 614 | 284 |1040 |  1 | 354 | 525 | 8.097128e+00 | 1.000000e+01 |  23.50%|  48.04%
 time | node  | left  |LP iter|LP it/n|mem/heur|mdpt |vars |cons |rows |cuts |sepa|confs|strbr|  dualbound   | primalbound  |  gap   | compl. 
 82.3s|  3400 |   955 |200725 |  57.9 |   265M |  30 | 231 | 611 | 283 |1064 |  1 | 356 | 526 | 8.107350e+00 | 1.000000e+01 |  23.34%|  48.43%
 83.4s|  3500 |   965 |204886 |  57.4 |   266M |  30 | 231 | 612 | 279 |1098 |  1 | 362 | 533 | 8.111493e+00 | 1.000000e+01 |  23.28%|  49.18%
 84.0s|  3600 |   967 |208680 |  56.9 |   266M |  30 | 231 | 620 | 283 |1103 |  1 | 371 | 541 | 8.127496e+00 | 1.000000e+01 |  23.04%|  49.42%
 84.4s|  3700 |   973 |212210 |  56.3 |   267M |  30 | 231 | 620 | 282 |1107 |  4 | 372 | 544 | 8.133042e+00 | 1.000000e+01 |  22.96%|  50.97%
 84.9s|  3800 |   979 |215861 |  55.8 |   267M |  30 | 231 | 626 | 278 |1115 |  1 | 382 | 550 | 8.167710e+00 | 1.000000e+01 |  22.43%|  51.57%
 85.5s|  3900 |   989 |219272 |  55.2 |   267M |  30 | 231 | 627 | 283 |1124 |  1 | 383 | 550 | 8.175890e+00 | 1.000000e+01 |  22.31%|  51.80%
 86.4s|  4000 |   991 |223399 |  54.9 |   267M |  30 | 231 | 629 | 283 |1150 |  1 | 385 | 553 | 8.177322e+00 | 1.000000e+01 |  22.29%|  52.23%
 87.4s|  4100 |   991 |227360 |  54.5 |   267M |  30 | 231 | 633 | 283 |1182 |  0 | 389 | 555 | 8.196559e+00 | 1.000000e+01 |  22.00%|  53.51%
 88.8s|  4200 |   989 |231448 |  54.2 |   267M |  31 | 231 | 635 | 284 |1223 |  0 | 394 | 559 | 8.226480e+00 | 1.000000e+01 |  21.56%|  54.26%
 89.7s|  4300 |   991 |234973 |  53.8 |   267M |  31 | 231 | 632 | 283 |1233 |  1 | 398 | 571 | 8.234061e+00 | 1.000000e+01 |  21.45%|  54.42%
 90.1s|  4400 |   991 |238110 |  53.2 |   267M |  31 | 231 | 630 | 283 |1239 |  0 | 401 | 572 | 8.244792e+00 | 1.000000e+01 |  21.29%|  55.00%
 90.8s|  4500 |   995 |241771 |  52.9 |   267M |  31 | 231 | 638 | 282 |1258 |  0 | 411 | 581 | 8.270248e+00 | 1.000000e+01 |  20.92%|  55.42%
*91.4s|  4578 |     0 |244669 |  52.6 |    LP  |  31 | 231 | 310 | 283 |1272 |  1 | 415 | 583 | 9.000000e+00 | 9.000000e+00 |   0.00%|  99.98%

SCIP Status        : problem is solved [optimal solution found]
Solving Time (sec) : 91.44
Solving Nodes      : 4578 (total of 4581 nodes in 4 runs)
Primal Bound       : +9.00000000000000e+00 (690 solutions)
Dual Bound         : +9.00000000000000e+00
Gap                : 0.00 %
Solve Status: optimal
Solve Time: 91.47 seconds
